
        $ From http://www.csplib.org/Problems/prob009/data/helmut.pdf
        $ Problem number 92
        $ Sequence length : 25
        language ESSENCE' 1.0
        letting sizemaster be 325
        letting sizes be sequence(3,5,6,11,12,13,18,23,25,28,32,37,40,43,45,46,51,79,92,99,103,108,112,114,134)
        